(declare-const a Int)
(declare-const b Int)
(declare-const c Int)
(declare-const d Int)
(declare-const e Int)
(declare-const f Int)
(declare-const g Int)
(declare-const h Int)
(declare-const i Int)
(declare-const j Int)
(declare-const k Int)
(declare-const l Int)
(declare-const m Int)
(declare-const n Int)
(declare-const o Int)
(declare-const p Int)
(declare-const q Int)
(declare-const r Int)
(declare-const s Int)
(declare-const t Int)
(declare-const u Int)
(declare-const v Int)
(declare-const w Int)
(declare-const x Int)
(declare-const y Int)
(declare-const z Int)
(declare-const { Int)
(declare-const | Int)
(declare-const } Int)
(declare-const ~ Int)
(declare-const  Int)
(declare-const  Int)
(declare-const  Int)
(declare-const  Int)
(declare-const  Int)
(declare-const  Int)
(declare-const  Int)
(assert (null))
(assert (null))
(assert (null))
(assert (null))
(assert (null))
(assert (null))
(assert (null))
(assert (null))
(assert (null))
(assert (null))
(assert (null))
(assert (null))
(assert (null))
(assert (null))
(assert (null))
(assert (null))
(assert (null))
(assert (null))
(assert (null))
(assert (null))
(assert (null))
(assert (null))
(assert (null))
(assert (null))
(assert (null))
(assert (null))
(assert (null))
(assert (null))
(assert (null))
(assert (null))
(assert (null))
(assert (null))
(assert (null))
(assert (null))
(assert (null))
(assert (null))
(assert (null))
(assert (null))
(assert (null))
(assert (null))
(assert (null))
(assert (null))
(assert (null))
(assert (null))
(assert (null))
(assert (null))
(assert (null))
(assert (null))
(assert (null))
(assert (null))
(assert (null))
(assert (null))
(assert (null))
(assert (null))
(assert (null))
(assert (null))
(assert (null))
(assert (null))
(assert (null))
(assert (null))
(assert (null))
(assert (null))
(assert (null))
(assert (null))
(assert (null))
(assert (null))
(assert (null))
(assert (null))
(assert (null))
(assert (null))
(assert (null))
(assert (null))
(assert (null))
(assert (null))
(assert (null))
(assert (null))
(assert (null))
(assert (null))
(assert (null))
(assert (null))
(assert (null))
(assert (null))
(assert (null))
(assert (null))
(assert (null))
(assert (null))
(assert (null))
(assert (null))
(assert (null))
(assert (null))
(assert (null))
(assert (null))
(assert (null))
(assert (null))
(assert (null))
(assert (null))
(assert (null))
(assert (null))
(assert (null))
(assert (null))
(assert (null))
(assert (null))
(assert (null))
(assert (null))
(assert (null))
(assert (null))
(assert (null))
(assert (null))
(assert (null))
(assert (null))
(assert (null))
(assert (null))
(assert (null))
(assert (null))
(assert (null))
(assert (null))
(assert (null))
(assert (null))
(assert (null))
(assert (null))
(assert (null))
(assert (null))
(assert (null))
(assert (null))
(assert (null))
(assert (null))
(assert (null))
(assert (null))
(assert (null))
(assert (null))
(assert (null))
(assert (null))
(assert (null))
(assert (null))
(assert (null))
(assert (null))
(assert (null))
(assert (null))
(assert (null))
(assert (null))
(assert (null))
(assert (null))
(assert (null))
(assert (null))
(assert (null))
(assert (null))
(assert (null))
(assert (null))
(assert (null))
(assert (null))
(assert (null))
(assert (null))
(assert (null))
(assert (null))
(assert (null))
(assert (null))
(assert (null))
(assert (null))
(assert (null))
(assert (null))
(assert (null))
(assert (null))
(assert (null))
(assert (null))
(assert (null))
(assert (null))
(assert (null))
(assert (null))
(assert (null))
(assert (null))
(assert (null))
(assert (null))
(assert (null))
(assert (null))
(assert (null))
(assert (null))
(assert (null))
(assert (null))
(assert (null))
(assert (null))
(assert (null))
(assert (null))
(assert (null))
(assert (null))
(assert (null))
(assert (null))
(assert (null))
(assert (null))
(assert (null))
(assert (null))
(assert (null))
(assert (null))
(assert (null))
(assert (null))
(assert (null))
(assert (null))
(assert (null))
(assert (null))
(assert (null))
(assert (null))
(assert (null))
(assert (null))
(assert (null))
(assert (null))
(assert (null))
(assert (null))
(assert (null))
(assert (null))
(assert (null))
(assert (null))
(assert (null))
(assert (null))
(assert (null))
(assert (null))
(assert (null))
(assert (null))
(assert (null))
(assert (null))
(assert (null))
(assert (null))
(assert (null))
(assert (null))
(assert (null))
(assert (null))
(assert (null))
(assert (null))
(assert (null))
(assert (null))
(assert (null))
(assert (null))
(assert (null))
(assert (null))
(assert (null))
(assert (null))
(assert (null))
(assert (null))
(assert (null))
(assert (null))
(assert (null))
(assert (null))
(assert (null))
(assert (null))
(assert (null))
(assert (null))
(assert (null))
(assert (null))
(assert (null))
(assert (null))
(assert (null))
(assert (null))
(assert (null))
(assert (null))
(assert (null))
(assert (null))
(assert (null))
(assert (null))
(assert (null))
(assert (null))
(assert (null))
(assert (null))
(assert (null))
(assert (null))
(assert (null))
(assert (null))
(assert (null))
(assert (null))
(assert (null))
(assert (null))
(assert (null))
(assert (null))
(assert (null))
(assert (null))
(assert (null))
(assert (null))
(assert (null))
(assert (null))
(assert (null))
(assert (null))
(assert (null))
(assert (null))
(assert (null))
(assert (null))
(assert (null))
(assert (null))
(assert (null))
(assert (null))
(assert (null))
(assert (null))
(assert (null))
(assert (null))
(assert (null))
(assert (null))
(assert (null))
(assert (null))
(assert (null))
(assert (null))
(assert (null))
(assert (null))
(assert (null))
(assert (null))
(assert (null))
(assert (null))
(assert (null))
(assert (null))
(assert (null))
(assert (null))
(assert (null))
(assert (null))
(assert (null))
(assert (null))
(assert (null))
(assert (null))
(assert (null))
(assert (null))
(assert (null))
(assert (null))
(assert (null))
(assert (null))
(assert (null))
(assert (null))
(assert (null))
(assert (null))
(assert (null))
(assert (null))
(assert (null))
(assert (null))
(assert (null))
(assert (null))
(assert (null))
(assert (null))
(assert (null))
(assert (null))
(assert (null))
(assert (null))
(assert (null))
(assert (null))
(assert (null))
(assert (null))
(assert (null))
(assert (null))
(assert (null))
(assert (null))
(assert (null))
(assert (null))
(assert (null))
(assert (null))
(assert (null))
(assert (null))
(assert (null))
(assert (null))
(assert (null))
(assert (null))
(assert (null))
(assert (null))
(assert (null))
(assert (null))
(assert (null))
(assert (null))
(assert (null))
(assert (null))
(assert (null))
(assert (null))
(assert (null))
(assert (null))
(assert (null))
(assert (null))
(assert (null))
(assert (null))
(assert (null))
(assert (null))
(assert (null))
(assert (null))
(assert (null))
(assert (null))
(assert (null))
(assert (null))
(assert (null))
(assert (null))
(assert (null))
(assert (null))
(assert (null))
(assert (null))
(assert (null))
(assert (null))
(assert (null))
(assert (null))
(assert (null))
(assert (null))
(assert (null))
(assert (null))
(assert (null))
(assert (null))
(assert (null))
(assert (null))
(assert (null))
(assert (null))
(assert (null))
(assert (null))
(assert (null))
(assert (null))
(assert (null))
(assert (null))
(assert (null))
(assert (null))
(assert (null))
(assert (null))
(assert (null))
(assert (null))
(assert (null))
(assert (null))
(assert (null))
(assert (null))
(assert (null))
(assert (null))
(assert (null))
(assert (null))
(assert (null))
(assert (null))
(assert (null))
(assert (null))
(assert (null))
(assert (null))
(assert (null))
(assert (null))
(assert (null))
(assert (null))
(assert (null))
(assert (null))
(assert (null))
(assert (null))
(assert (not (null)))
(check-sat)
